Translating instance to solver...

Set parameter TimeLimit to value 28800
Gurobi Optimizer version 11.0.2 build v11.0.2rc0 (linux64 - "Ubuntu 22.04.4 LTS")

CPU model: Intel(R) Xeon(R) Gold 5120 CPU @ 2.20GHz, instruction set [SSE2|AVX|AVX2|AVX512]
Thread count: 28 physical cores, 56 logical processors, using up to 28 threads

Academic license 2463511 - for non-commercial use only - registered to lu___@cefet-rj.br
Optimize a model with 40945 rows, 21383 columns and 96975 nonzeros
Model fingerprint: 0x4540b567
Variable types: 1 continuous, 21382 integer (21340 binary)
Coefficient statistics:
  Matrix range     [1e+00, 1e+05]
  Objective range  [3e-01, 8e-01]
  Bounds range     [1e+00, 4e+01]
  RHS range        [1e+00, 9e+01]
Presolve removed 32349 rows and 17829 columns
Presolve time: 0.62s
Presolved: 8596 rows, 3554 columns, 25530 nonzeros
Variable types: 0 continuous, 3554 integer (3513 binary)

Root relaxation: objective 2.116495e+00, 1049 iterations, 0.04 seconds (0.05 work units)

    Nodes    |    Current Node    |     Objective Bounds      |     Work
 Expl Unexpl |  Obj  Depth IntInf | Incumbent    BestBd   Gap | It/Node Time

     0     0    2.11649    0   67          -    2.11649      -     -    0s
H    0     0                       3.9412370    2.11649  46.3%     -    0s
H    0     0                       3.7794550    2.11649  44.0%     -    1s
H    0     0                       2.5735640    2.11649  17.8%     -    1s
     0     0    2.12251    0  107    2.57356    2.12251  17.5%     -    1s
H    0     0                       2.2676730    2.18176  3.79%     -    1s
     0     0    2.18176    0  116    2.26767    2.18176  3.79%     -    1s
     0     0    2.22186    0  141    2.26767    2.22186  2.02%     -    1s
     0     0    2.22186    0  127    2.26767    2.22186  2.02%     -    1s
     0     0     cutoff    0         2.26767    2.26767  0.00%     -    1s

Cutting planes:
  Learned: 22
  Gomory: 1
  Implied bound: 35
  Clique: 3
  MIR: 31
  Zero half: 14
  RLT: 21
  Relax-and-lift: 5
  BQP: 10

Explored 1 nodes (4388 simplex iterations) in 1.66 seconds (1.25 work units)
Thread count was 28 (of 56 available processors)

Solution count 5: 2.26767 2.57356 3.77945 ... 3.94124

Optimal solution found (tolerance 1.00e-04)
Best objective 2.267673000000e+00, best bound 2.267673000000e+00, gap 0.0000%

Solver Wallclock Time (for this epsilon): 1.6623198986053467 s
Python wallclock Time (for this epsilon): 4.6222734451293945 s


Total Elapsed Time (since program call): 153.71927452087402 s

Results:

I = 2.267673 mA
C = 91.0 points
C ~= 36.4 km^2

Minimum Epsilon for this instance = 9
Maximum Epsilon for this instance = 98

Current Epsilon = 90


Preprocessing Time (for this epsilon): 0.0067865848541259766 s


Updated solution vectors:
sol_I = [-0.611782,-0.9176730000000001,-1.061782,-1.061782,-1.0617818536323502,-1.061782,-1.511782,-1.511782,-2.123564,-2.267673]
sol_C = [11.0,19.0,51.0,51.0,48.99999437626569,54.0,68.0,73.0,81.0,91.0]
sol_eps = [9,18,27,36,45,54,63,72,81,90]
sol_gap = [0.0,0.0,0.0,0.0,0.0,0.0,0.0,9.729729577578894e-08,0.0,0.0]
